(synth-fun lemma ((x Int) (nil Int)) Bool

           ((Start Bool) (Loc Int))

           ((Start Bool (
                   (=> Start Start)
                   (lst Loc)
                   (odd_lst Loc)
                   (even_lst Loc)))
            (Loc Int (x nil)))
)

(synth-fun rswitch () Int

           ((Start Int))
           ((Start Int (0 1 2)))

)
